<instance format="XCSP3" type="CSP">
  <variables>
    <var id="x0"> 2 8 9 </var>
    <var id="x1"> 3 8 9 12 </var>
    <var id="x2"> 3 4 6 8 9 12 </var>
    <var id="x3"> 3 6 8 12 </var>
    <var id="x4"> 2..4 6 </var>
    <var id="x5"> 3 4 6 12 </var>
    <var id="x6"> 2 6 8 12 </var>
    <var id="x7"> 4 5 12..14 </var>
    <var id="x8"> 1 7 13 14 </var>
    <var id="x9"> 1 4 5 14 </var>
    <var id="x10"> 1 4 13 14 </var>
    <var id="x11"> 4 12 14 </var>
    <var id="x12"> 4 5 </var>
    <var id="x13"> 1 5 12..14 </var>
    <var id="x14"> 8 10 12 14 </var>
    <var id="x15"> 3 8 10 12 </var>
    <var id="x16"> 3 6 8 10 12 </var>
    <var id="x17"> 2..4 6 14 </var>
    <var id="x18"> 3 6 10 14 </var>
    <var id="x19"> 2 4 6 10 </var>
    <var id="x20"> 3 6 12 14 </var>
    <var id="x21"> 3 4 </var>
    <var id="x22"> 0 8 9 </var>
    <var id="x23"> 1 6..9 </var>
    <var id="x24"> 6 8 9 </var>
    <var id="x25"> 6 7 10 </var>
    <var id="x26"> 6 8 10 </var>
    <var id="x27"> 1 6 </var>
    <var id="x28"> 0 1 7 </var>
    <var id="x29"> 1 9 10 12 14 </var>
    <var id="x30"> 5 9 10 12 </var>
    <var id="x31"> 5 12 14 </var>
    <var id="x32"> 1 9 14 </var>
    <var id="x33"> 9 12 14 </var>
    <var id="x34"> 5 10 14 </var>
    <var id="x35"> 2 5 9 10 </var>
    <var id="x36"> 5 9 13 14 </var>
    <var id="x37"> 9 12 14 </var>
    <var id="x38"> 5 11..14 </var>
    <var id="x39"> 9 13 14 </var>
    <var id="x40"> 3 11..13 </var>
    <var id="x41"> 3 13 14 </var>
    <var id="x42"> 3 5 11 14 </var>
    <var id="x43"> 6 9 11 14 </var>
    <var id="x44"> 6 10 11 13 </var>
    <var id="x45"> 1 10 14 </var>
    <var id="x46"> 1 6 13 14 </var>
    <var id="x47"> 6 11 14 </var>
    <var id="x48"> 6 9 10 </var>
    <var id="x49"> 1 6 13 14 </var>
    <var id="x50"> 2 5 8 13 </var>
    <var id="x51"> 8 10 12 </var>
    <var id="x52"> 4 5 8 10 </var>
    <var id="x53"> 4 12 </var>
    <var id="x54"> 2 8 10 12 13 </var>
    <var id="x55"> 5 12 13 </var>
    <var id="x56"> 4 5 </var>
    <var id="x57"> 5 8 14 </var>
    <var id="x58"> 1 8 12 14 </var>
    <var id="x59"> 3 5 8 12 </var>
    <var id="x60"> 3 6 8 12 14 </var>
    <var id="x61"> 1 3 5 8 14 </var>
    <var id="x62"> 6 8 12 </var>
    <var id="x63"> 1 3 5 </var>
    <var id="x64"> 0 5 13 14 </var>
    <var id="x65"> 6 13 14 </var>
    <var id="x66"> 3 6 14 </var>
    <var id="x67"> 3 6 10 13 </var>
    <var id="x68"> 0 3 6 14 </var>
    <var id="x69"> 3 5 6 10 14 </var>
    <var id="x70"> 6 10 13 </var>
    <var id="x71"> 0 8 13 14 </var>
    <var id="x72"> 0 3 8 </var>
    <var id="x73"> 8 11 13 14 </var>
    <var id="x74"> 7 8 13 14 </var>
    <var id="x75"> 3 8 11 13 </var>
    <var id="x76"> 0 </var>
    <var id="x77"> 0 3 7 11 </var>
    <var id="x78"> 4 5 8 11 13 </var>
    <var id="x79"> 6 8 11 13 </var>
    <var id="x80"> 4 5 8 </var>
    <var id="x81"> 4 6 13 </var>
    <var id="x82"> 0 4 6 11 </var>
    <var id="x83"> 0 4..6 </var>
    <var id="x84"> 0 4 5 11 </var>
    <var id="x85"> 3 8 </var>
    <var id="x86"> 3 4 6 8 11 14 </var>
    <var id="x87"> 1 3 4 8 14 </var>
    <var id="x88"> 1 3 4 6 14 </var>
    <var id="x89"> 3 6 11 14 </var>
    <var id="x90"> 6 8 11 </var>
    <var id="x91"> 1 3 6 14 </var>
    <var id="x92"> 10 12 14 </var>
    <var id="x93"> 0 3 10 12 </var>
    <var id="x94"> 4 11 12 14 </var>
    <var id="x95"> 14 </var>
    <var id="x96"> 3 4 10 14 </var>
    <var id="x97"> 3 10 11 14 </var>
    <var id="x98"> 10..12 </var>
    <var id="x99"> 7..9 </var>
    <var id="x100"> 5 8 11 </var>
    <var id="x101"> 3 6 8 9 11 </var>
    <var id="x102"> 3 6 11 </var>
    <var id="x103"> 5 6 9 </var>
    <var id="x104"> 3 5 6 </var>
    <var id="x105"> 3 5 7 11 </var>
  </variables>
  <constraints>
    <group>
      <allDifferent> %... </allDifferent>
      <args> x0 x1 x2 x3 x4 x5 x6 </args>
      <args> x7 x8 x9 x10 x11 x12 x13 </args>
      <args> x14 x15 x16 x17 x18 x19 x20 x21 </args>
      <args> x22 x23 x24 x25 x26 x27 x28 </args>
      <args> x29 x30 x31 x32 x33 x34 x35 </args>
      <args> x36 x37 x38 x39 x40 x41 x42 </args>
      <args> x43 x44 x45 x46 x47 x48 x49 </args>
      <args> x50 x51 x52 x53 x54 x55 x56 </args>
      <args> x57 x58 x59 x60 x61 x62 x63 </args>
      <args> x64 x65 x66 x67 x68 x69 x70 </args>
      <args> x71 x72 x73 x74 x75 x76 x77 </args>
      <args> x78 x79 x80 x81 x82 x83 x84 </args>
      <args> x85 x86 x87 x88 x89 x90 x91 </args>
      <args> x92 x93 x94 x95 x96 x97 x98 </args>
      <args> x99 x100 x101 x102 x103 x104 x105 </args>
      <args> x0 x22 x36 x50 x57 x64 x71 </args>
      <args> x14 x29 x37 x51 x58 x92 x99 </args>
      <args> x1 x15 x30 x59 x72 x85 x93 </args>
      <args> x7 x31 x38 x73 x78 x94 x100 </args>
      <args> x8 x23 x32 x39 x65 x74 x95 </args>
      <args> x2 x24 x33 x43 x60 x66 x86 x101 </args>
      <args> x3 x16 x40 x44 x67 x75 x79 </args>
      <args> x9 x45 x52 x61 x80 x87 x96 </args>
      <args> x4 x10 x17 x41 x46 x81 x88 </args>
      <args> x5 x11 x47 x53 x68 x82 x102 </args>
      <args> x18 x25 x34 x42 x69 x89 x97 </args>
      <args> x6 x26 x54 x62 x70 x90 x98 </args>
      <args> x12 x19 x35 x48 x76 x83 x103 </args>
      <args> x13 x20 x27 x49 x55 x91 x104 </args>
      <args> x21 x28 x56 x63 x77 x84 x105 </args>
    </group>
  </constraints>
</instance>

